 Maximize
[ 1.0000000000000000 Z0 * Z1  ]
Subject to
c1: [ 1.0000000000000000 Z0 * Z1  + 1.7400000000000000 Z0 * Z2  + 1.7400000000000000 Z0 * Z3  + 1.7400000000000000 Z0 * Z4  + 1.4500000000000000 Z0 * Z5  + 1.4500000000000000 Z0 * Z6  + 1.4500000000000000 Z0 * Z7 -7.3799999999999999 Z0 * Z8 -7.3799999999999999 Z0 * Z9 -7.3799999999999999 Z0 * Z10 -5.5999999999999996 Z0 * Z11 -5.5999999999999996 Z0 * Z12 -5.5999999999999996 Z0 * Z13  + 1.7000000000000000 Z0 * Z14  + 1.7000000000000000 Z0 * Z15  + 1.7000000000000000 Z0 * Z16  + 1.1799999999999999 Z0 * Z17  + 1.1799999999999999 Z0 * Z18  + 1.1799999999999999 Z0 * Z19 -7.2100000000000000 Z0 * Z20 -7.2100000000000000 Z0 * Z21 -7.2100000000000000 Z0 * Z22 -5.4500000000000002 Z0 * Z23 -5.4500000000000002 Z0 * Z24 -5.4500000000000002 Z0 * Z25  + 0.3000000000000000 Z0 * Z26  + 0.3000000000000000 Z0 * Z27  + 0.3000000000000000 Z0 * Z28 -7.7100000000000000 Z0 * Z29 -7.7100000000000000 Z0 * Z30 -7.7100000000000000 Z0 * Z31 -6.2800000000000002 Z0 * Z32 -6.2800000000000002 Z0 * Z33 -6.2800000000000002 Z0 * Z34 -7.7400000000000002 Z0 * Z35 -7.7400000000000002 Z0 * Z36 -7.7400000000000002 Z0 * Z37  + 0.8400000000000000 Z0 * Z68  + 0.8400000000000000 Z0 * Z69  + 0.8400000000000000 Z0 * Z70  + 0.0500000000000000 Z0 * Z71  + 0.0500000000000000 Z0 * Z72  + 0.0500000000000000 Z0 * Z73  + 0.9399999999999999 Z0 * Z74  + 0.9399999999999999 Z0 * Z75  + 0.9399999999999999 Z0 * Z76  + 0.8100000000000001 Z0 * Z77  + 0.8100000000000001 Z0 * Z78  + 0.8100000000000001 Z0 * Z79  + 0.7900000000000000 Z0 * Z80  + 0.7900000000000000 Z0 * Z81  + 0.7900000000000000 Z0 * Z82  + 0.0500000000000000 Z0 * Z83  + 0.0500000000000000 Z0 * Z84  + 0.0500000000000000 Z0 * Z85  + 0.6500000000000000 Z0 * Z86  + 0.6500000000000000 Z0 * Z87  + 0.6500000000000000 Z0 * Z88  + 0.9700000000000000 Z0 * Z89  + 0.9700000000000000 Z0 * Z90  + 0.9700000000000000 Z0 * Z91  + 0.5700000000000000 Z0 * Z92  + 0.5700000000000000 Z0 * Z93  + 0.5700000000000000 Z0 * Z94  + 0.2600000000000000 Z0 * Z95  + 0.2600000000000000 Z0 * Z96  + 0.2600000000000000 Z0 * Z97  + 0.4500000000000000 Z0 * Z98  + 0.4500000000000000 Z0 * Z99  + 0.4500000000000000 Z0 * Z100  + 0.1000000000000000 Z0 * Z101  + 0.1000000000000000 Z0 * Z102  + 0.1000000000000000 Z0 * Z103  ] = 0.000000
c2: [ 1.0000000000000000 Z0 * Z2  + 1.0000000000000000 Z0 * Z5  + 1.0000000000000000 Z0 * Z8  + 1.0000000000000000 Z0 * Z11  + 1.0000000000000000 Z0 * Z50  ] = 1.000000
c3: [ 1.0000000000000000 Z0 * Z14  + 1.0000000000000000 Z0 * Z17  + 1.0000000000000000 Z0 * Z20  + 1.0000000000000000 Z0 * Z23  + 1.0000000000000000 Z0 * Z53  ] = 1.100000
c4: [ -1.0000000000000000 Z0 * Z2 -1.0000000000000000 Z0 * Z14  + 1.0000000000000000 Z0 * Z26  + 1.0000000000000000 Z0 * Z29  + 1.0000000000000000 Z0 * Z32  + 1.0000000000000000 Z0 * Z56  ] = 0.200000
c5: [ -1.0000000000000000 Z0 * Z5 -1.0000000000000000 Z0 * Z17 -1.0000000000000000 Z0 * Z26  + 1.0000000000000000 Z0 * Z35  + 1.0000000000000000 Z0 * Z59  ] = 0.100000
c6: [ -1.0000000000000000 Z0 * Z8 -1.0000000000000000 Z0 * Z20 -1.0000000000000000 Z0 * Z29 -1.0000000000000000 Z0 * Z35  + 1.0000000000000000 Z0 * Z62  ] = 1.550000
c7: [ -1.0000000000000000 Z0 * Z11 -1.0000000000000000 Z0 * Z23 -1.0000000000000000 Z0 * Z32  + 1.0000000000000000 Z0 * Z65  ] = 0.490000
c8: [ -0.6000000000000000 Z0 * Z2 -0.2000000000000000 Z0 * Z14  + 0.2000000000000000 Z0 * Z26  + 0.2000000000000000 Z0 * Z29  + 0.2000000000000000 Z0 * Z32  + 1.0000000000000000 Z38 * Z56  ] = 0.040000
c9: [ -0.6000000000000000 Z0 * Z5 -0.2000000000000000 Z0 * Z17 -0.2000000000000000 Z0 * Z26  + 0.7000000000000000 Z0 * Z35  + 1.0000000000000000 Z41 * Z59  ] = 0.070000
c10: [ -0.4000000000000000 Z0 * Z2 -0.4000000000000000 Z0 * Z14  + 0.5000000000000000 Z0 * Z26  + 0.5000000000000000 Z0 * Z29  + 0.5000000000000000 Z0 * Z32  + 1.0000000000000000 Z44 * Z56  ] = 0.100000
c11: [ -0.4000000000000000 Z0 * Z5 -0.4000000000000000 Z0 * Z17 -0.5000000000000000 Z0 * Z26  + 0.6000000000000000 Z0 * Z35  + 1.0000000000000000 Z47 * Z59  ] = 0.060000
c12: [ 1.0000000000000000 Z0 * Z3  + 1.0000000000000000 Z0 * Z6  + 1.0000000000000000 Z0 * Z9  + 1.0000000000000000 Z0 * Z12 -1.0000000000000000 Z0 * Z50  + 1.0000000000000000 Z0 * Z51  ] = 1.000000
c13: [ 1.0000000000000000 Z0 * Z4  + 1.0000000000000000 Z0 * Z7  + 1.0000000000000000 Z0 * Z10  + 1.0000000000000000 Z0 * Z13 -1.0000000000000000 Z0 * Z51  + 1.0000000000000000 Z0 * Z52  ] = 0.000000
c14: [ 1.0000000000000000 Z0 * Z15  + 1.0000000000000000 Z0 * Z18  + 1.0000000000000000 Z0 * Z21  + 1.0000000000000000 Z0 * Z24 -1.0000000000000000 Z0 * Z53  + 1.0000000000000000 Z0 * Z54  ] = 0.100000
c15: [ 1.0000000000000000 Z0 * Z16  + 1.0000000000000000 Z0 * Z19  + 1.0000000000000000 Z0 * Z22  + 1.0000000000000000 Z0 * Z25 -1.0000000000000000 Z0 * Z54  + 1.0000000000000000 Z0 * Z55  ] = 0.900000
c16: [ -1.0000000000000000 Z0 * Z3 -1.0000000000000000 Z0 * Z15  + 1.0000000000000000 Z0 * Z27  + 1.0000000000000000 Z0 * Z30  + 1.0000000000000000 Z0 * Z33 -1.0000000000000000 Z0 * Z56  + 1.0000000000000000 Z0 * Z57  ] = 0.000000
c17: [ -1.0000000000000000 Z0 * Z4 -1.0000000000000000 Z0 * Z16  + 1.0000000000000000 Z0 * Z28  + 1.0000000000000000 Z0 * Z31  + 1.0000000000000000 Z0 * Z34 -1.0000000000000000 Z0 * Z57  + 1.0000000000000000 Z0 * Z58  ] = 0.000000
c18: [ -1.0000000000000000 Z0 * Z6 -1.0000000000000000 Z0 * Z18 -1.0000000000000000 Z0 * Z27  + 1.0000000000000000 Z0 * Z36 -1.0000000000000000 Z0 * Z59  + 1.0000000000000000 Z0 * Z60  ] = 0.000000
c19: [ -1.0000000000000000 Z0 * Z7 -1.0000000000000000 Z0 * Z19 -1.0000000000000000 Z0 * Z28  + 1.0000000000000000 Z0 * Z37 -1.0000000000000000 Z0 * Z60  + 1.0000000000000000 Z0 * Z61  ] = 0.000000
c20: [ -1.0000000000000000 Z0 * Z9 -1.0000000000000000 Z0 * Z21 -1.0000000000000000 Z0 * Z30 -1.0000000000000000 Z0 * Z36 -1.0000000000000000 Z0 * Z62  + 1.0000000000000000 Z0 * Z63  ] = -0.810000
c21: [ -1.0000000000000000 Z0 * Z10 -1.0000000000000000 Z0 * Z22 -1.0000000000000000 Z0 * Z31 -1.0000000000000000 Z0 * Z37 -1.0000000000000000 Z0 * Z63  + 1.0000000000000000 Z0 * Z64  ] = -0.880000
c22: [ -1.0000000000000000 Z0 * Z12 -1.0000000000000000 Z0 * Z24 -1.0000000000000000 Z0 * Z33 -1.0000000000000000 Z0 * Z65  + 1.0000000000000000 Z0 * Z66  ] = -0.140000
c23: [ -1.0000000000000000 Z0 * Z13 -1.0000000000000000 Z0 * Z25 -1.0000000000000000 Z0 * Z34 -1.0000000000000000 Z0 * Z66  + 1.0000000000000000 Z0 * Z67  ] = -0.100000
c24: [ -0.6000000000000000 Z0 * Z3 -0.2000000000000000 Z0 * Z15  + 1.0000000000000000 Z27 * Z38  + 1.0000000000000000 Z30 * Z38  + 1.0000000000000000 Z33 * Z38 -1.0000000000000000 Z38 * Z56  + 1.0000000000000000 Z39 * Z57  ] = 0.000000
c25: [ -0.6000000000000000 Z0 * Z4 -0.2000000000000000 Z0 * Z16  + 1.0000000000000000 Z28 * Z39  + 1.0000000000000000 Z31 * Z39  + 1.0000000000000000 Z34 * Z39 -1.0000000000000000 Z39 * Z57  + 1.0000000000000000 Z40 * Z58  ] = 0.000000
c26: [ -0.6000000000000000 Z0 * Z6 -0.2000000000000000 Z0 * Z18 -1.0000000000000000 Z27 * Z38  + 1.0000000000000000 Z36 * Z41 -1.0000000000000000 Z41 * Z59  + 1.0000000000000000 Z42 * Z60  ] = 0.000000
c27: [ -0.6000000000000000 Z0 * Z7 -0.2000000000000000 Z0 * Z19 -1.0000000000000000 Z28 * Z39  + 1.0000000000000000 Z37 * Z42 -1.0000000000000000 Z42 * Z60  + 1.0000000000000000 Z43 * Z61  ] = 0.000000
c28: [ -0.4000000000000000 Z0 * Z3 -0.4000000000000000 Z0 * Z15  + 1.0000000000000000 Z27 * Z44  + 1.0000000000000000 Z30 * Z44  + 1.0000000000000000 Z33 * Z44 -1.0000000000000000 Z44 * Z56  + 1.0000000000000000 Z45 * Z57  ] = 0.000000
c29: [ -0.4000000000000000 Z0 * Z4 -0.4000000000000000 Z0 * Z16  + 1.0000000000000000 Z28 * Z45  + 1.0000000000000000 Z31 * Z45  + 1.0000000000000000 Z34 * Z45 -1.0000000000000000 Z45 * Z57  + 1.0000000000000000 Z46 * Z58  ] = 0.000000
c30: [ -0.4000000000000000 Z0 * Z6 -0.4000000000000000 Z0 * Z18 -1.0000000000000000 Z27 * Z44  + 1.0000000000000000 Z36 * Z47 -1.0000000000000000 Z47 * Z59  + 1.0000000000000000 Z48 * Z60  ] = 0.000000
c31: [ -0.4000000000000000 Z0 * Z7 -0.4000000000000000 Z0 * Z19 -1.0000000000000000 Z28 * Z45  + 1.0000000000000000 Z37 * Z48 -1.0000000000000000 Z48 * Z60  + 1.0000000000000000 Z49 * Z61  ] = 0.000000
c32: [ 1.0000000000000000 Z0 * Z2 -1.0000000000000000 Z0 * Z68  ] <= 0.000000
c33: [ 1.0000000000000000 Z0 * Z3 -1.0000000000000000 Z0 * Z69  ] <= 0.000000
c34: [ 1.0000000000000000 Z0 * Z4 -1.0000000000000000 Z0 * Z70  ] <= 0.000000
c35: [ 1.0000000000000000 Z0 * Z5 -1.0000000000000000 Z0 * Z71  ] <= 0.000000
c36: [ 1.0000000000000000 Z0 * Z6 -1.0000000000000000 Z0 * Z72  ] <= 0.000000
c37: [ 1.0000000000000000 Z0 * Z7 -1.0000000000000000 Z0 * Z73  ] <= 0.000000
c38: [ 1.0000000000000000 Z0 * Z8 -1.0000000000000000 Z0 * Z74  ] <= 0.000000
c39: [ 1.0000000000000000 Z0 * Z9 -1.0000000000000000 Z0 * Z75  ] <= 0.000000
c40: [ 1.0000000000000000 Z0 * Z10 -1.0000000000000000 Z0 * Z76  ] <= 0.000000
c41: [ 1.0000000000000000 Z0 * Z11 -1.0000000000000000 Z0 * Z77  ] <= 0.000000
c42: [ 1.0000000000000000 Z0 * Z12 -1.0000000000000000 Z0 * Z78  ] <= 0.000000
c43: [ 1.0000000000000000 Z0 * Z13 -1.0000000000000000 Z0 * Z79  ] <= 0.000000
c44: [ 1.0000000000000000 Z0 * Z14 -1.0000000000000000 Z0 * Z80  ] <= 0.000000
c45: [ 1.0000000000000000 Z0 * Z15 -1.0000000000000000 Z0 * Z81  ] <= 0.000000
c46: [ 1.0000000000000000 Z0 * Z16 -1.0000000000000000 Z0 * Z82  ] <= 0.000000
c47: [ 1.0000000000000000 Z0 * Z17 -1.0000000000000000 Z0 * Z83  ] <= 0.000000
c48: [ 1.0000000000000000 Z0 * Z18 -1.0000000000000000 Z0 * Z84  ] <= 0.000000
c49: [ 1.0000000000000000 Z0 * Z19 -1.0000000000000000 Z0 * Z85  ] <= 0.000000
c50: [ 1.0000000000000000 Z0 * Z20 -1.0000000000000000 Z0 * Z86  ] <= 0.000000
c51: [ 1.0000000000000000 Z0 * Z21 -1.0000000000000000 Z0 * Z87  ] <= 0.000000
c52: [ 1.0000000000000000 Z0 * Z22 -1.0000000000000000 Z0 * Z88  ] <= 0.000000
c53: [ 1.0000000000000000 Z0 * Z23 -1.0000000000000000 Z0 * Z89  ] <= 0.000000
c54: [ 1.0000000000000000 Z0 * Z24 -1.0000000000000000 Z0 * Z90  ] <= 0.000000
c55: [ 1.0000000000000000 Z0 * Z25 -1.0000000000000000 Z0 * Z91  ] <= 0.000000
c56: [ 1.0000000000000000 Z0 * Z26 -1.0000000000000000 Z0 * Z92  ] <= 0.000000
c57: [ 1.0000000000000000 Z0 * Z27 -1.0000000000000000 Z0 * Z93  ] <= 0.000000
c58: [ 1.0000000000000000 Z0 * Z28 -1.0000000000000000 Z0 * Z94  ] <= 0.000000
c59: [ 1.0000000000000000 Z0 * Z29 -1.0000000000000000 Z0 * Z95  ] <= 0.000000
c60: [ 1.0000000000000000 Z0 * Z30 -1.0000000000000000 Z0 * Z96  ] <= 0.000000
c61: [ 1.0000000000000000 Z0 * Z31 -1.0000000000000000 Z0 * Z97  ] <= 0.000000
c62: [ 1.0000000000000000 Z0 * Z32 -1.0000000000000000 Z0 * Z98  ] <= 0.000000
c63: [ 1.0000000000000000 Z0 * Z33 -1.0000000000000000 Z0 * Z99  ] <= 0.000000
c64: [ 1.0000000000000000 Z0 * Z34 -1.0000000000000000 Z0 * Z100  ] <= 0.000000
c65: [ 1.0000000000000000 Z0 * Z35 -1.0000000000000000 Z0 * Z101  ] <= 0.000000
c66: [ 1.0000000000000000 Z0 * Z36 -1.0000000000000000 Z0 * Z102  ] <= 0.000000
c67: [ 1.0000000000000000 Z0 * Z37 -1.0000000000000000 Z0 * Z103  ] <= 0.000000
c68: [ 1.0000000000000000 Z0 * Z2  ] >= 0.000000
c69: [ 1.0000000000000000 Z0 * Z3  ] >= 0.000000
c70: [ 1.0000000000000000 Z0 * Z4  ] >= 0.000000
c71: [ 1.0000000000000000 Z0 * Z5  ] >= 0.000000
c72: [ 1.0000000000000000 Z0 * Z6  ] >= 0.000000
c73: [ 1.0000000000000000 Z0 * Z7  ] >= 0.000000
c74: [ 1.0000000000000000 Z0 * Z8  ] >= 0.000000
c75: [ 1.0000000000000000 Z0 * Z9  ] >= 0.000000
c76: [ 1.0000000000000000 Z0 * Z10  ] >= 0.000000
c77: [ 1.0000000000000000 Z0 * Z11  ] >= 0.000000
c78: [ 1.0000000000000000 Z0 * Z12  ] >= 0.000000
c79: [ 1.0000000000000000 Z0 * Z13  ] >= 0.000000
c80: [ 1.0000000000000000 Z0 * Z14  ] >= 0.000000
c81: [ 1.0000000000000000 Z0 * Z15  ] >= 0.000000
c82: [ 1.0000000000000000 Z0 * Z16  ] >= 0.000000
c83: [ 1.0000000000000000 Z0 * Z17  ] >= 0.000000
c84: [ 1.0000000000000000 Z0 * Z18  ] >= 0.000000
c85: [ 1.0000000000000000 Z0 * Z19  ] >= 0.000000
c86: [ 1.0000000000000000 Z0 * Z20  ] >= 0.000000
c87: [ 1.0000000000000000 Z0 * Z21  ] >= 0.000000
c88: [ 1.0000000000000000 Z0 * Z22  ] >= 0.000000
c89: [ 1.0000000000000000 Z0 * Z23  ] >= 0.000000
c90: [ 1.0000000000000000 Z0 * Z24  ] >= 0.000000
c91: [ 1.0000000000000000 Z0 * Z25  ] >= 0.000000
c92: [ 1.0000000000000000 Z0 * Z26  ] >= 0.000000
c93: [ 1.0000000000000000 Z0 * Z27  ] >= 0.000000
c94: [ 1.0000000000000000 Z0 * Z28  ] >= 0.000000
c95: [ 1.0000000000000000 Z0 * Z29  ] >= 0.000000
c96: [ 1.0000000000000000 Z0 * Z30  ] >= 0.000000
c97: [ 1.0000000000000000 Z0 * Z31  ] >= 0.000000
c98: [ 1.0000000000000000 Z0 * Z32  ] >= 0.000000
c99: [ 1.0000000000000000 Z0 * Z33  ] >= 0.000000
c100: [ 1.0000000000000000 Z0 * Z34  ] >= 0.000000
c101: [ 1.0000000000000000 Z0 * Z35  ] >= 0.000000
c102: [ 1.0000000000000000 Z0 * Z36  ] >= 0.000000
c103: [ 1.0000000000000000 Z0 * Z37  ] >= 0.000000
c104: [ 1.0000000000000000 Z0 * Z74  ] <= 1.500000
c105: [ 1.0000000000000000 Z0 * Z75  ] <= 1.500000
c106: [ 1.0000000000000000 Z0 * Z76  ] <= 1.500000
c107: [ 1.0000000000000000 Z0 * Z77  ] <= 0.600000
c108: [ 1.0000000000000000 Z0 * Z78  ] <= 0.600000
c109: [ 1.0000000000000000 Z0 * Z79  ] <= 0.600000
c110: [ 1.0000000000000000 Z0 * Z86  ] <= 1.100000
c111: [ 1.0000000000000000 Z0 * Z87  ] <= 1.100000
c112: [ 1.0000000000000000 Z0 * Z88  ] <= 1.100000
c113: [ 1.0000000000000000 Z0 * Z89  ] <= 0.200000
c114: [ 1.0000000000000000 Z0 * Z90  ] <= 0.200000
c115: [ 1.0000000000000000 Z0 * Z91  ] <= 0.200000
c116: [ 1.0000000000000000 Z0 * Z74  ] <= 1.000000
c117: [ 1.0000000000000000 Z0 * Z75  ] <= 1.000000
c118: [ 1.0000000000000000 Z0 * Z76  ] <= 1.000000
c119: [ 1.0000000000000000 Z0 * Z77  ] <= 0.800000
c120: [ 1.0000000000000000 Z0 * Z78  ] <= 0.800000
c121: [ 1.0000000000000000 Z0 * Z79  ] <= 0.800000
c122: [ 1.0000000000000000 Z0 * Z86  ] <= 1.000000
c123: [ 1.0000000000000000 Z0 * Z87  ] <= 1.000000
c124: [ 1.0000000000000000 Z0 * Z88  ] <= 1.000000
c125: [ 1.0000000000000000 Z0 * Z89  ] <= 0.800000
c126: [ 1.0000000000000000 Z0 * Z90  ] <= 0.800000
c127: [ 1.0000000000000000 Z0 * Z91  ] <= 0.800000
c128: [ -1.0000000000000000 Z0 * Z74  ] >= -1.300000
c129: [ -1.0000000000000000 Z0 * Z75  ] >= -1.300000
c130: [ -1.0000000000000000 Z0 * Z76  ] >= -1.300000
c131: [ -1.0000000000000000 Z0 * Z77  ] >= -1.400000
c132: [ -1.0000000000000000 Z0 * Z78  ] >= -1.400000
c133: [ -1.0000000000000000 Z0 * Z79  ] >= -1.400000
c134: [ -1.0000000000000000 Z0 * Z86  ] >= -1.700000
c135: [ -1.0000000000000000 Z0 * Z87  ] >= -1.700000
c136: [ -1.0000000000000000 Z0 * Z88  ] >= -1.700000
c137: [ -1.0000000000000000 Z0 * Z89  ] >= -1.800000
c138: [ -1.0000000000000000 Z0 * Z90  ] >= -1.800000
c139: [ -1.0000000000000000 Z0 * Z91  ] >= -1.800000
c140: [ -1.0000000000000000 Z0 * Z74  ] >= -1.000000
c141: [ -1.0000000000000000 Z0 * Z75  ] >= -1.000000
c142: [ -1.0000000000000000 Z0 * Z76  ] >= -1.000000
c143: [ -1.0000000000000000 Z0 * Z77  ] >= -1.400000
c144: [ -1.0000000000000000 Z0 * Z78  ] >= -1.400000
c145: [ -1.0000000000000000 Z0 * Z79  ] >= -1.400000
c146: [ -1.0000000000000000 Z0 * Z86  ] >= -1.000000
c147: [ -1.0000000000000000 Z0 * Z87  ] >= -1.000000
c148: [ -1.0000000000000000 Z0 * Z88  ] >= -1.000000
c149: [ -1.0000000000000000 Z0 * Z89  ] >= -1.400000
c150: [ -1.0000000000000000 Z0 * Z90  ] >= -1.400000
c151: [ -1.0000000000000000 Z0 * Z91  ] >= -1.400000
c152: [ -1.0000000000000000 Z0 * Z38  + 1.0000000000000000 Z0 * Z96  ] <= 0.900000
c153: [ -1.0000000000000000 Z0 * Z39  + 1.0000000000000000 Z0 * Z97  ] <= 0.900000
c154: [ -1.0000000000000000 Z0 * Z38  + 1.0000000000000000 Z0 * Z99  ] <= 0.000000
c155: [ -1.0000000000000000 Z0 * Z39  + 1.0000000000000000 Z0 * Z100  ] <= 0.000000
c156: [ -1.0000000000000000 Z0 * Z41  + 1.0000000000000000 Z0 * Z102  ] <= 0.900000
c157: [ -1.0000000000000000 Z0 * Z42  + 1.0000000000000000 Z0 * Z103  ] <= 0.900000
c158: [ -1.0000000000000000 Z0 * Z44  + 1.0000000000000000 Z0 * Z96  ] <= 0.600000
c159: [ -1.0000000000000000 Z0 * Z45  + 1.0000000000000000 Z0 * Z97  ] <= 0.600000
c160: [ -1.0000000000000000 Z0 * Z44  + 1.0000000000000000 Z0 * Z99  ] <= 0.400000
c161: [ -1.0000000000000000 Z0 * Z45  + 1.0000000000000000 Z0 * Z100  ] <= 0.400000
c162: [ -1.0000000000000000 Z0 * Z47  + 1.0000000000000000 Z0 * Z102  ] <= 0.600000
c163: [ -1.0000000000000000 Z0 * Z48  + 1.0000000000000000 Z0 * Z103  ] <= 0.600000
c164: [ -1.0000000000000000 Z0 * Z38 -1.0000000000000000 Z0 * Z96  ] >= -1.900000
c165: [ -1.0000000000000000 Z0 * Z39 -1.0000000000000000 Z0 * Z97  ] >= -1.900000
c166: [ -1.0000000000000000 Z0 * Z38 -1.0000000000000000 Z0 * Z99  ] >= -2.000000
c167: [ -1.0000000000000000 Z0 * Z39 -1.0000000000000000 Z0 * Z100  ] >= -2.000000
c168: [ -1.0000000000000000 Z0 * Z41 -1.0000000000000000 Z0 * Z102  ] >= -1.900000
c169: [ -1.0000000000000000 Z0 * Z42 -1.0000000000000000 Z0 * Z103  ] >= -1.900000
c170: [ -1.0000000000000000 Z0 * Z44 -1.0000000000000000 Z0 * Z96  ] >= -1.400000
c171: [ -1.0000000000000000 Z0 * Z45 -1.0000000000000000 Z0 * Z97  ] >= -1.400000
c172: [ -1.0000000000000000 Z0 * Z44 -1.0000000000000000 Z0 * Z99  ] >= -1.800000
c173: [ -1.0000000000000000 Z0 * Z45 -1.0000000000000000 Z0 * Z100  ] >= -1.800000
c174: [ -1.0000000000000000 Z0 * Z47 -1.0000000000000000 Z0 * Z102  ] >= -1.400000
c175: [ -1.0000000000000000 Z0 * Z48 -1.0000000000000000 Z0 * Z103  ] >= -1.400000
c176: [ 1.0000000000000000 Z0 * Z95  ] <= 1.100000
c177: [ 1.0000000000000000 Z0 * Z98  ] <= 0.200000
c178: [ 1.0000000000000000 Z0 * Z101  ] <= 1.600000
c179: [ 1.0000000000000000 Z0 * Z95  ] <= 1.100000
c180: [ 1.0000000000000000 Z0 * Z98  ] <= 0.900000
c181: [ 1.0000000000000000 Z0 * Z101  ] <= 1.200000
c182: [ -1.0000000000000000 Z0 * Z95  ] >= -1.700000
c183: [ -1.0000000000000000 Z0 * Z98  ] >= -1.800000
c184: [ -1.0000000000000000 Z0 * Z101  ] >= -1.200000
c185: [ -1.0000000000000000 Z0 * Z95  ] >= -0.900000
c186: [ -1.0000000000000000 Z0 * Z98  ] >= -1.300000
c187: [ -1.0000000000000000 Z0 * Z101  ] >= -0.800000
c188: [ 1.0000000000000000 Z0 * Z68  + 1.0000000000000000 Z0 * Z92  ] <= 1.000000
c189: [ 1.0000000000000000 Z0 * Z69  + 1.0000000000000000 Z0 * Z93  ] <= 1.000000
c190: [ 1.0000000000000000 Z0 * Z70  + 1.0000000000000000 Z0 * Z94  ] <= 1.000000
c191: [ 1.0000000000000000 Z0 * Z68  + 1.0000000000000000 Z0 * Z95  ] <= 1.000000
c192: [ 1.0000000000000000 Z0 * Z69  + 1.0000000000000000 Z0 * Z96  ] <= 1.000000
c193: [ 1.0000000000000000 Z0 * Z70  + 1.0000000000000000 Z0 * Z97  ] <= 1.000000
c194: [ 1.0000000000000000 Z0 * Z68  + 1.0000000000000000 Z0 * Z98  ] <= 1.000000
c195: [ 1.0000000000000000 Z0 * Z69  + 1.0000000000000000 Z0 * Z99  ] <= 1.000000
c196: [ 1.0000000000000000 Z0 * Z70  + 1.0000000000000000 Z0 * Z100  ] <= 1.000000
c197: [ 1.0000000000000000 Z0 * Z80  + 1.0000000000000000 Z0 * Z92  ] <= 1.000000
c198: [ 1.0000000000000000 Z0 * Z81  + 1.0000000000000000 Z0 * Z93  ] <= 1.000000
c199: [ 1.0000000000000000 Z0 * Z82  + 1.0000000000000000 Z0 * Z94  ] <= 1.000000
c200: [ 1.0000000000000000 Z0 * Z80  + 1.0000000000000000 Z0 * Z95  ] <= 1.000000
c201: [ 1.0000000000000000 Z0 * Z81  + 1.0000000000000000 Z0 * Z96  ] <= 1.000000
c202: [ 1.0000000000000000 Z0 * Z82  + 1.0000000000000000 Z0 * Z97  ] <= 1.000000
c203: [ 1.0000000000000000 Z0 * Z80  + 1.0000000000000000 Z0 * Z98  ] <= 1.000000
c204: [ 1.0000000000000000 Z0 * Z81  + 1.0000000000000000 Z0 * Z99  ] <= 1.000000
c205: [ 1.0000000000000000 Z0 * Z82  + 1.0000000000000000 Z0 * Z100  ] <= 1.000000
c206: [ 1.0000000000000000 Z0 * Z71  + 1.0000000000000000 Z0 * Z101  ] <= 1.000000
c207: [ 1.0000000000000000 Z0 * Z72  + 1.0000000000000000 Z0 * Z102  ] <= 1.000000
c208: [ 1.0000000000000000 Z0 * Z73  + 1.0000000000000000 Z0 * Z103  ] <= 1.000000
c209: [ 1.0000000000000000 Z0 * Z83  + 1.0000000000000000 Z0 * Z101  ] <= 1.000000
c210: [ 1.0000000000000000 Z0 * Z84  + 1.0000000000000000 Z0 * Z102  ] <= 1.000000
c211: [ 1.0000000000000000 Z0 * Z85  + 1.0000000000000000 Z0 * Z103  ] <= 1.000000
c212: [ 1.0000000000000000 Z0 * Z92  + 1.0000000000000000 Z0 * Z101  ] <= 1.000000
c213: [ 1.0000000000000000 Z0 * Z93  + 1.0000000000000000 Z0 * Z102  ] <= 1.000000
c214: [ 1.0000000000000000 Z0 * Z94  + 1.0000000000000000 Z0 * Z103  ] <= 1.000000
ac1: Z0 - 1 = 0
Bounds
1 <= Z0 <= 1
-100000000.0000000000000000 <= Z1 <= 100000000.0000000000000000
0.0000000000000000 <= Z2 <= 1.0000000000000000
0.0000000000000000 <= Z3 <= 1.0000000000000000
0.0000000000000000 <= Z4 <= 1.0000000000000000
0.0000000000000000 <= Z5 <= 1.0000000000000000
0.0000000000000000 <= Z6 <= 1.0000000000000000
0.0000000000000000 <= Z7 <= 1.0000000000000000
0.0000000000000000 <= Z8 <= 1.0000000000000000
0.0000000000000000 <= Z9 <= 1.0000000000000000
0.0000000000000000 <= Z10 <= 1.0000000000000000
0.0000000000000000 <= Z11 <= 1.0000000000000000
0.0000000000000000 <= Z12 <= 1.0000000000000000
0.0000000000000000 <= Z13 <= 1.0000000000000000
0.0000000000000000 <= Z14 <= 1.0000000000000000
0.0000000000000000 <= Z15 <= 1.0000000000000000
0.0000000000000000 <= Z16 <= 1.0000000000000000
0.0000000000000000 <= Z17 <= 1.0000000000000000
0.0000000000000000 <= Z18 <= 1.0000000000000000
0.0000000000000000 <= Z19 <= 1.0000000000000000
0.0000000000000000 <= Z20 <= 1.0000000000000000
0.0000000000000000 <= Z21 <= 1.0000000000000000
0.0000000000000000 <= Z22 <= 1.0000000000000000
0.0000000000000000 <= Z23 <= 1.0000000000000000
0.0000000000000000 <= Z24 <= 1.0000000000000000
0.0000000000000000 <= Z25 <= 1.0000000000000000
0.0000000000000000 <= Z26 <= 1.0000000000000000
0.0000000000000000 <= Z27 <= 1.0000000000000000
0.0000000000000000 <= Z28 <= 1.0000000000000000
0.0000000000000000 <= Z29 <= 1.0000000000000000
0.0000000000000000 <= Z30 <= 1.0000000000000000
0.0000000000000000 <= Z31 <= 1.0000000000000000
0.0000000000000000 <= Z32 <= 1.0000000000000000
0.0000000000000000 <= Z33 <= 1.0000000000000000
0.0000000000000000 <= Z34 <= 1.0000000000000000
0.0000000000000000 <= Z35 <= 1.0000000000000000
0.0000000000000000 <= Z36 <= 1.0000000000000000
0.0000000000000000 <= Z37 <= 1.0000000000000000
0.0000000000000000 <= Z38 <= 1.0000000000000000
0.0000000000000000 <= Z39 <= 1.0000000000000000
0.0000000000000000 <= Z40 <= 1.0000000000000000
0.0000000000000000 <= Z41 <= 1.0000000000000000
0.0000000000000000 <= Z42 <= 1.0000000000000000
0.0000000000000000 <= Z43 <= 1.0000000000000000
0.0000000000000000 <= Z44 <= 1.0000000000000000
0.0000000000000000 <= Z45 <= 1.0000000000000000
0.0000000000000000 <= Z46 <= 1.0000000000000000
0.0000000000000000 <= Z47 <= 1.0000000000000000
0.0000000000000000 <= Z48 <= 1.0000000000000000
0.0000000000000000 <= Z49 <= 1.0000000000000000
0.0000000000000000 <= Z50 <= 2.0000000000000000
0.0000000000000000 <= Z51 <= 2.0000000000000000
0.0000000000000000 <= Z52 <= 2.0000000000000000
0.0000000000000000 <= Z53 <= 2.0000000000000000
0.0000000000000000 <= Z54 <= 2.0000000000000000
0.0000000000000000 <= Z55 <= 2.0000000000000000
0.0000000000000000 <= Z56 <= 2.0000000000000000
0.0000000000000000 <= Z57 <= 2.0000000000000000
0.0000000000000000 <= Z58 <= 2.0000000000000000
0.0000000000000000 <= Z59 <= 2.0000000000000000
0.0000000000000000 <= Z60 <= 2.0000000000000000
0.0000000000000000 <= Z61 <= 2.0000000000000000
0.0000000000000000 <= Z62 <= 2.0000000000000000
0.0000000000000000 <= Z63 <= 2.0000000000000000
0.0000000000000000 <= Z64 <= 2.0000000000000000
0.0000000000000000 <= Z65 <= 2.0000000000000000
0.0000000000000000 <= Z66 <= 2.0000000000000000
0.0000000000000000 <= Z67 <= 2.0000000000000000
0.0000000000000000 <= Z68 <= 1.0000000000000000
0.0000000000000000 <= Z69 <= 1.0000000000000000
0.0000000000000000 <= Z70 <= 1.0000000000000000
0.0000000000000000 <= Z71 <= 1.0000000000000000
0.0000000000000000 <= Z72 <= 1.0000000000000000
0.0000000000000000 <= Z73 <= 1.0000000000000000
0.0000000000000000 <= Z74 <= 1.0000000000000000
0.0000000000000000 <= Z75 <= 1.0000000000000000
0.0000000000000000 <= Z76 <= 1.0000000000000000
0.0000000000000000 <= Z77 <= 1.0000000000000000
0.0000000000000000 <= Z78 <= 1.0000000000000000
0.0000000000000000 <= Z79 <= 1.0000000000000000
0.0000000000000000 <= Z80 <= 1.0000000000000000
0.0000000000000000 <= Z81 <= 1.0000000000000000
0.0000000000000000 <= Z82 <= 1.0000000000000000
0.0000000000000000 <= Z83 <= 1.0000000000000000
0.0000000000000000 <= Z84 <= 1.0000000000000000
0.0000000000000000 <= Z85 <= 1.0000000000000000
0.0000000000000000 <= Z86 <= 1.0000000000000000
0.0000000000000000 <= Z87 <= 1.0000000000000000
0.0000000000000000 <= Z88 <= 1.0000000000000000
0.0000000000000000 <= Z89 <= 1.0000000000000000
0.0000000000000000 <= Z90 <= 1.0000000000000000
0.0000000000000000 <= Z91 <= 1.0000000000000000
0.0000000000000000 <= Z92 <= 1.0000000000000000
0.0000000000000000 <= Z93 <= 1.0000000000000000
0.0000000000000000 <= Z94 <= 1.0000000000000000
0.0000000000000000 <= Z95 <= 1.0000000000000000
0.0000000000000000 <= Z96 <= 1.0000000000000000
0.0000000000000000 <= Z97 <= 1.0000000000000000
0.0000000000000000 <= Z98 <= 1.0000000000000000
0.0000000000000000 <= Z99 <= 1.0000000000000000
0.0000000000000000 <= Z100 <= 1.0000000000000000
0.0000000000000000 <= Z101 <= 1.0000000000000000
0.0000000000000000 <= Z102 <= 1.0000000000000000
0.0000000000000000 <= Z103 <= 1.0000000000000000
Binaries
Z68 Z69 Z70 Z71 Z72 Z73 Z74 Z75 Z76 Z77 Z78 Z79 Z80 Z81 Z82 Z83 Z84 Z85 Z86 Z87 Z88 Z89 Z90 Z91 Z92 Z93 Z94 Z95 Z96 Z97 Z98 Z99 Z100 Z101 Z102 Z103 
End